NAME          DCAP_2_4_3_300_SS292
ROWS
 N  OBJ
 L  CON1
 L  CON2
 L  CON3
 L  CON4
 L  CON5
 L  CON6
 L  CON7
 L  CON8
 L  CON9
 L  CON10
 L  CON11
 L  CON12
 E  CON13
 E  CON14
 E  CON15
 E  CON16
 E  CON17
 E  CON18
 E  CON19
 E  CON20
 E  CON21
 E  CON22
 E  CON23
 E  CON24
COLUMNS
    x[1,1]    OBJ       6.180167      CON1      1.000000    
    x[1,1]    CON7      -1.000000     CON8      -1.000000   
    x[1,1]    CON9      -1.000000   
    x[1,2]    OBJ       6.563535      CON2      1.000000    
    x[1,2]    CON8      -1.000000     CON9      -1.000000   
    x[1,3]    OBJ       7.443064      CON3      1.000000    
    x[1,3]    CON9      -1.000000   
    x[2,1]    OBJ       6.732585      CON4      1.000000    
    x[2,1]    CON10     -1.000000     CON11     -1.000000   
    x[2,1]    CON12     -1.000000   
    x[2,2]    OBJ       5.039546      CON5      1.000000    
    x[2,2]    CON11     -1.000000     CON12     -1.000000   
    x[2,3]    OBJ       6.054841      CON6      1.000000    
    x[2,3]    CON12     -1.000000   
    MARKER    'MARKER'                'INTORG'
    u[1,1]    OBJ       48.076654     CON1      -1.000000   
    u[1,2]    OBJ       20.066487     CON2      -1.000000   
    u[1,3]    OBJ       32.230043     CON3      -1.000000   
    u[2,1]    OBJ       49.996186     CON4      -1.000000   
    u[2,2]    OBJ       49.466655     CON5      -1.000000   
    u[2,3]    OBJ       27.484319     CON6      -1.000000   
    y[1,1,1]  OBJ       9.279733      CON7      1.258396    
    y[1,1,1]  CON13     1.000000    
    y[1,1,2]  OBJ       9.667824      CON8      1.029913    
    y[1,1,2]  CON14     1.000000    
    y[1,1,3]  OBJ       5.127149      CON9      0.874732    
    y[1,1,3]  CON15     1.000000    
    y[1,2,1]  OBJ       8.526332      CON7      0.846775    
    y[1,2,1]  CON16     1.000000    
    y[1,2,2]  OBJ       5.454397      CON8      0.931783    
    y[1,2,2]  CON17     1.000000    
    y[1,2,3]  OBJ       9.942980      CON9      0.882817    
    y[1,2,3]  CON18     1.000000    
    y[1,3,1]  OBJ       7.309248      CON7      1.465431    
    y[1,3,1]  CON19     1.000000    
    y[1,3,2]  OBJ       9.062098      CON8      0.824763    
    y[1,3,2]  CON20     1.000000    
    y[1,3,3]  OBJ       8.150423      CON9      1.066474    
    y[1,3,3]  CON21     1.000000    
    y[1,4,1]  OBJ       6.009534      CON7      0.773553    
    y[1,4,1]  CON22     1.000000    
    y[1,4,2]  OBJ       5.366648      CON8      0.806888    
    y[1,4,2]  CON23     1.000000    
    y[1,4,3]  OBJ       9.755091      CON9      0.503303    
    y[1,4,3]  CON24     1.000000    
    y[2,1,1]  OBJ       8.698407      CON10     1.258396    
    y[2,1,1]  CON13     1.000000    
    y[2,1,2]  OBJ       7.790925      CON11     1.029913    
    y[2,1,2]  CON14     1.000000    
    y[2,1,3]  OBJ       7.167684      CON12     0.874732    
    y[2,1,3]  CON15     1.000000    
    y[2,2,1]  OBJ       8.638737      CON10     0.846775    
    y[2,2,1]  CON16     1.000000    
    y[2,2,2]  OBJ       9.563988      CON11     0.931783    
    y[2,2,2]  CON17     1.000000    
    y[2,2,3]  OBJ       5.887093      CON12     0.882817    
    y[2,2,3]  CON18     1.000000    
    y[2,3,1]  OBJ       9.043036      CON10     1.465431    
    y[2,3,1]  CON19     1.000000    
    y[2,3,2]  OBJ       5.749434      CON11     0.824763    
    y[2,3,2]  CON20     1.000000    
    y[2,3,3]  OBJ       8.961826      CON12     1.066474    
    y[2,3,3]  CON21     1.000000    
    y[2,4,1]  OBJ       5.221921      CON10     0.773553    
    y[2,4,1]  CON22     1.000000    
    y[2,4,2]  OBJ       5.291761      CON11     0.806888    
    y[2,4,2]  CON23     1.000000    
    y[2,4,3]  OBJ       6.901818      CON12     0.503303    
    y[2,4,3]  CON24     1.000000    
    z[1,1]    OBJ       696.346264    CON13     1.000000    
    z[1,2]    OBJ       790.716537    CON14     1.000000    
    z[1,3]    OBJ       675.901223    CON15     1.000000    
    z[2,1]    OBJ       755.221481    CON16     1.000000    
    z[2,2]    OBJ       868.280761    CON17     1.000000    
    z[2,3]    OBJ       612.359515    CON18     1.000000    
    z[3,1]    OBJ       830.559626    CON19     1.000000    
    z[3,2]    OBJ       932.879133    CON20     1.000000    
    z[3,3]    OBJ       949.512892    CON21     1.000000    
    z[4,1]    OBJ       507.982507    CON22     1.000000    
    z[4,2]    OBJ       556.045612    CON23     1.000000    
    z[4,3]    OBJ       720.233099    CON24     1.000000    
    MARKER    'MARKER'                 'INTEND'
RHS
    RHS       CON1      -0.000000     CON2      -0.000000   
    RHS       CON3      -0.000000     CON4      -0.000000   
    RHS       CON5      -0.000000     CON6      -0.000000   
    RHS       CON7      -0.000000     CON8      -0.000000   
    RHS       CON9      -0.000000     CON10     -0.000000   
    RHS       CON11     -0.000000     CON12     -0.000000   
    RHS       CON13     1.000000      CON14     1.000000    
    RHS       CON15     1.000000      CON16     1.000000    
    RHS       CON17     1.000000      CON18     1.000000    
    RHS       CON19     1.000000      CON20     1.000000    
    RHS       CON21     1.000000      CON22     1.000000    
    RHS       CON23     1.000000      CON24     1.000000    
BOUNDS
 BV BOUND     u[1,1]  
 BV BOUND     u[1,2]  
 BV BOUND     u[1,3]  
 BV BOUND     u[2,1]  
 BV BOUND     u[2,2]  
 BV BOUND     u[2,3]  
 BV BOUND     y[1,1,1]
 BV BOUND     y[1,1,2]
 BV BOUND     y[1,1,3]
 BV BOUND     y[1,2,1]
 BV BOUND     y[1,2,2]
 BV BOUND     y[1,2,3]
 BV BOUND     y[1,3,1]
 BV BOUND     y[1,3,2]
 BV BOUND     y[1,3,3]
 BV BOUND     y[1,4,1]
 BV BOUND     y[1,4,2]
 BV BOUND     y[1,4,3]
 BV BOUND     y[2,1,1]
 BV BOUND     y[2,1,2]
 BV BOUND     y[2,1,3]
 BV BOUND     y[2,2,1]
 BV BOUND     y[2,2,2]
 BV BOUND     y[2,2,3]
 BV BOUND     y[2,3,1]
 BV BOUND     y[2,3,2]
 BV BOUND     y[2,3,3]
 BV BOUND     y[2,4,1]
 BV BOUND     y[2,4,2]
 BV BOUND     y[2,4,3]
 BV BOUND     z[1,1]  
 BV BOUND     z[1,2]  
 BV BOUND     z[1,3]  
 BV BOUND     z[2,1]  
 BV BOUND     z[2,2]  
 BV BOUND     z[2,3]  
 BV BOUND     z[3,1]  
 BV BOUND     z[3,2]  
 BV BOUND     z[3,3]  
 BV BOUND     z[4,1]  
 BV BOUND     z[4,2]  
 BV BOUND     z[4,3]  
ENDATA
